networks/zoo_19_18/zoo_19_18-lower.txt
Number of groups: 7
Flow 1: {1 2 0} {2 14 0} 
Flow 2: {1 3 0} {3 15 0} 
Flow 3: {1 4 0} {4 16 0} 
Flow 4: {1 5 0} {5 17 0} 
Flow 5: {1 6 0} {6 18 0} 
Flow 6: {4 7 0} {7 19 0} 
Flow 7: {2 1 0} {1 13 0} 
Flow 9: {3 1 0} Flow 11: {4 1 0} Flow 12: {6 1 0} Flow 14: {7 4 0} Flow 16: {8 7 0} Flow 18: {10 4 0} Time taken running everything: 0 seconds
