networks/zoo_19_18/zoo_19_18-lower.sol
<?xml version = "1.0" encoding="UTF-8" standalone="yes"?>
<CPLEXSolution version="1.2">
 <header
   problemName="networks/zoo_19_18/zoo_19_18-lower.lp"
   solutionName="incumbent"
   solutionIndex="-1"
   objectiveValue="7"
   solutionTypeValue="3"
   solutionTypeString="primal"
   solutionStatusValue="101"
   solutionStatusString="integer optimal solution"
   solutionMethodString="mip"
   primalFeasible="1"
   dualFeasible="1"
   MIPNodes="0"
   MIPIterations="0"
   writeLevel="3"/>
 <quality
   epInt="1.0000000000000001e-05"
   epRHS="9.9999999999999995e-07"
   maxIntInfeas="0"
   maxPrimalInfeas="0"
   maxX="1"
   maxSlack="1"/>
 <variables>
  <variable name="Y(1,2)" index="1" value="1"/>
  <variable name="Y(2,3)" index="18" value="1"/>
  <variable name="Y(3,4)" index="35" value="1"/>
  <variable name="Y(4,5)" index="52" value="1"/>
  <variable name="Y(5,6)" index="69" value="1"/>
  <variable name="Y(6,7)" index="86" value="1"/>
  <variable name="Y(7,1)" index="96" value="1"/>
  <variable name="X(1,2,1)" index="288" value="1"/>
  <variable name="X(1,3,2)" index="307" value="1"/>
  <variable name="X(1,4,3)" index="326" value="1"/>
  <variable name="X(1,5,4)" index="345" value="1"/>
  <variable name="X(1,6,5)" index="364" value="1"/>
  <variable name="X(1,13,7)" index="384" value="1"/>
  <variable name="X(2,1,7)" index="402" value="1"/>
  <variable name="X(2,14,1)" index="414" value="1"/>
  <variable name="X(3,1,9)" index="440" value="1"/>
  <variable name="X(3,15,2)" index="451" value="1"/>
  <variable name="X(4,1,11)" index="478" value="1"/>
  <variable name="X(4,7,6)" index="491" value="1"/>
  <variable name="X(4,16,3)" index="506" value="1"/>
  <variable name="X(5,17,4)" index="525" value="1"/>
  <variable name="X(6,1,12)" index="551" value="1"/>
  <variable name="X(6,18,5)" index="562" value="1"/>
  <variable name="X(7,4,14)" index="589" value="1"/>
  <variable name="X(7,19,6)" index="599" value="1"/>
  <variable name="X(8,7,16)" index="627" value="1"/>
  <variable name="X(10,4,18)" index="647" value="1"/>
 </variables>
</CPLEXSolution>
